c solution=1
p cnf 15 30
-13 -1 0
-9 5 0
8 2 0
-3 13 0
4 13 0
-8 15 0
-5 3 0
10 -9 0
14 -15 0
4 -5 0
-3 -5 0
-1 2 0
10 8 0
7 -12 0
11 -8 0
13 -12 0
-8 -2 0
11 -5 0
-10 12 0
2 13 0
-6 13 0
-6 13 0
-7 9 0
4 9 0
4 -15 0
1 -2 0
6 9 0
2 -5 0
14 -10 0
15 2 0
